num_tasks=52;
num_machines=3;
comp_cost=[|0, 0, 0, 
|87, 112, 105,
|87, 94, 60,
|82, 67, 103,
|62, 105, 56,
|85, 80, 125,
|71, 108, 97,
|59, 76, 92,
|66, 72, 54,
|99, 64, 140,
|115, 148, 115,
|132, 110, 148,
|131, 124, 51,
|61, 142, 121,
|86, 129, 99,
|107, 89, 55,
|62, 80, 143,
|73, 104, 146,
|130, 103, 136,
|67, 94, 63,
|120, 141, 112,
|80, 132, 136,
|123, 145, 71,
|89, 85, 119,
|134, 78, 139,
|67, 128, 60,
|131, 102, 116,
|80, 120, 127,
|50, 98, 72,
|86, 74, 112,
|108, 88, 140,
|122, 78, 138,
|114, 84, 117,
|110, 71, 95,
|83, 139, 64,
|149, 50, 120,
|144, 62, 100,
|71, 109, 133,
|99, 76, 59,
|139, 77, 96,
|124, 52, 80,
|131, 144, 136,
|56, 99, 105,
|121, 68, 93,
|122, 68, 123,
|100, 50, 138,
|58, 96, 99,
|122, 51, 119,
|112, 135, 52,
|139, 138, 79,
|56, 130, 120,
|0, 0, 0|];
comm_cost=[|0,0,0,0,0,0,0,0,0,0,0,0,0,0,0,0,0,0,0,0,0,0,0,0,0,0,0,0,0,0,0,0,0,0,0,0,0
,0,0,0,0,0,0,0,0,0,0,0,0,0,0,0,
|0,0,54,64,83,88,85,62,117,140,138,98,135,61,106,59,61,117
,122,130,62,115,132,86,107,77,132,133,0,0,0,0,0,0,0,0
,0,0,0,0,0,0,0,0,0,0,0,0,0,0,0,0,
|0,0,0,0,92,51,0,0,63,109,53,0,0,96,76,99,0,136
,128,59,0,0,98,0,0,133,66,78,103,85,140,71,67,59,92,0
,0,0,0,0,0,0,0,0,0,0,0,0,0,0,0,0,
|0,0,0,0,0,103,122,0,89,0,135,0,77,0,0,62,0,0
,0,92,0,0,125,74,143,0,0,122,0,70,0,0,0,0,80,0
,123,0,0,85,0,124,76,100,0,0,107,0,57,0,0,0,
|0,0,0,0,0,71,0,0,0,111,0,0,0,0,0,0,0,0
,116,115,75,92,0,79,0,0,0,94,0,0,0,0,111,0,0,0
,0,80,80,0,82,0,51,50,110,92,65,0,0,112,52,0,
|0,0,0,0,0,0,0,74,109,82,54,80,0,0,76,90,0,0
,0,72,0,0,73,77,0,90,0,60,0,0,0,0,114,51,109,0
,0,0,0,65,0,127,0,137,0,129,0,66,0,67,53,0,
|0,0,0,0,0,0,0,129,148,0,0,0,133,0,85,138,0,0
,104,116,71,75,131,141,0,99,0,61,0,0,0,0,68,54,85,0
,0,0,120,115,0,77,111,137,116,0,142,110,0,0,122,0,
|0,0,0,0,0,0,0,0,89,95,73,0,108,0,0,92,91,0
,0,61,87,0,92,120,95,87,0,0,0,0,0,0,71,0,0,0
,0,115,91,78,59,0,0,0,0,130,0,0,108,59,129,0,
|0,0,0,0,0,0,0,0,0,0,57,0,0,54,112,0,0,52
,0,0,0,0,95,0,84,142,106,116,0,0,0,0,94,0,68,0
,0,0,0,0,0,58,133,0,0,102,0,0,0,120,0,0,
|0,0,0,0,0,0,0,0,0,0,143,0,0,0,64,0,51,0
,0,115,0,0,101,0,147,0,0,50,0,0,0,0,0,0,120,0
,0,132,116,58,133,130,0,66,132,0,141,0,0,93,0,0,
|0,0,0,0,0,0,0,0,0,0,0,69,0,0,146,0,0,0
,0,72,0,112,100,0,0,0,119,82,0,0,0,0,0,0,79,0
,0,50,83,0,52,68,0,0,0,117,89,112,0,72,0,0,
|0,0,0,0,0,0,0,0,0,0,0,0,0,149,71,0,142,64
,0,77,111,100,50,126,0,0,115,139,0,0,0,0,0,76,0,0
,0,0,54,133,0,74,0,0,130,68,87,70,0,0,0,0,
|0,0,0,0,0,0,0,0,0,0,0,0,0,68,0,0,112,51
,60,0,0,124,0,0,139,0,87,144,0,0,0,0,0,140,0,0
,0,118,0,76,0,0,97,0,0,0,148,60,64,0,0,0,
|0,0,0,0,0,0,0,0,0,0,0,0,0,0,62,0,81,134
,0,0,0,100,0,69,73,63,0,94,0,0,0,0,0,84,0,0
,0,0,140,101,0,0,0,138,70,0,0,0,0,115,0,0,
|0,0,0,0,0,0,0,0,0,0,0,0,0,0,0,0,0,53
,102,109,0,93,0,0,149,112,0,136,0,0,0,0,0,0,0,0
,0,0,146,58,0,138,0,71,146,0,0,0,0,129,0,0,
|0,0,0,0,0,0,0,0,0,0,0,0,0,0,0,0,0,0
,119,63,0,0,146,98,0,91,147,0,0,0,0,0,0,87,99,0
,0,0,147,0,0,127,0,118,0,102,0,149,69,0,0,0,
|0,0,0,0,0,0,0,0,0,0,0,0,0,0,0,0,0,137
,130,0,66,0,63,143,0,57,0,0,0,0,0,0,0,0,127,0
,0,0,0,124,115,91,0,0,0,0,0,95,0,0,0,0,
|0,0,0,0,0,0,0,0,0,0,0,0,0,0,0,0,0,0
,62,0,120,89,0,71,0,113,140,0,0,0,0,0,0,0,0,0
,0,0,0,0,0,91,0,61,143,120,145,0,115,0,0,0,
|0,0,0,0,0,0,0,0,0,0,0,0,0,0,0,0,0,0
,0,0,0,0,118,90,0,93,145,112,0,0,0,0,0,0,0,0
,0,0,0,0,0,126,58,74,0,0,0,101,0,0,0,0,
|0,0,0,0,0,0,0,0,0,0,0,0,0,0,0,0,0,0
,0,0,0,98,113,132,116,0,108,0,0,0,0,0,0,0,133,0
,0,0,0,0,0,0,86,72,0,0,0,0,0,0,0,0,
|0,0,0,0,0,0,0,0,0,0,0,0,0,0,0,0,0,0
,0,0,0,77,149,113,144,96,0,146,0,0,0,0,0,0,0,0
,0,0,0,0,0,0,147,0,0,0,0,0,0,0,0,0,
|0,0,0,0,0,0,0,0,0,0,0,0,0,0,0,0,0,0
,0,0,0,0,0,0,103,0,103,80,0,0,0,0,0,0,0,0
,0,0,0,0,0,146,0,72,102,0,0,56,146,0,0,0,
|0,0,0,0,0,0,0,0,0,0,0,0,0,0,0,0,0,0
,0,0,0,0,0,0,0,83,127,73,0,0,0,0,0,0,0,0
,0,0,0,0,0,117,0,89,109,0,0,97,0,0,0,0,
|0,0,0,0,0,0,0,0,0,0,0,0,0,0,0,0,0,0
,0,0,0,0,0,0,0,0,0,110,0,0,0,0,0,0,0,0
,0,0,0,0,0,0,0,0,129,0,0,0,0,0,0,0,
|0,0,0,0,0,0,0,0,0,0,0,0,0,0,0,0,0,0
,0,0,0,0,0,0,0,119,0,128,0,0,0,0,0,0,0,0
,0,0,0,0,0,0,0,0,0,0,0,99,0,0,0,0,
|0,0,0,0,0,0,0,0,0,0,0,0,0,0,0,0,0,0
,0,0,0,0,0,0,0,0,86,74,0,0,0,0,0,0,0,0
,0,0,0,0,0,0,0,0,0,60,0,147,62,0,0,0,
|0,0,0,0,0,0,0,0,0,0,0,0,0,0,0,0,0,0
,0,0,0,0,0,0,0,0,0,110,0,0,0,0,0,0,0,0
,0,0,0,0,0,0,0,0,0,0,0,0,0,0,0,0,
|0,0,0,0,0,0,0,0,0,0,0,0,0,0,0,0,0,0,0,0,0,0,0,0,0,0,0,0,0,0,0,0,0,0,0,0,0
,0,0,0,0,0,0,0,0,0,0,0,0,0,0,0,
|0,0,0,135,0,65,124,62,0,101,87,50,76,0,0,145,103,0
,0,66,125,87,117,147,0,0,0,114,0,0,112,0,84,117,0,0
,0,133,0,0,0,0,86,0,0,50,78,133,0,0,0,0,
|0,0,0,0,124,0,0,0,0,0,0,85,54,104,61,0,0,126
,0,75,0,137,147,0,0,0,0,81,0,0,0,52,0,141,0,0
,0,0,56,0,0,0,0,58,0,0,143,0,0,0,0,0,
|0,0,0,0,146,54,0,52,77,90,108,66,96,0,0,0,0,0
,84,0,53,0,135,136,0,138,144,0,0,0,0,0,0,135,0,0
,147,0,0,0,0,136,117,108,87,0,0,135,0,116,0,0,
|0,0,0,0,0,0,0,0,0,0,0,64,83,101,0,0,102,0
,108,0,134,104,55,0,0,0,0,0,0,0,0,0,86,0,92,0
,0,0,0,0,77,110,124,134,126,146,136,0,68,0,0,0,
|0,0,0,0,0,0,0,0,0,0,67,75,0,0,113,0,0,0
,127,132,123,64,108,92,0,145,145,141,0,0,0,0,0,131,0,0
,0,0,0,84,0,116,0,0,0,0,0,77,0,131,0,0,
|0,0,0,0,0,0,0,0,0,0,0,0,0,0,0,0,0,0
,0,80,55,79,135,144,0,124,135,141,0,0,0,0,0,0,83,0
,0,0,0,0,124,136,0,0,80,0,62,0,86,0,0,0,
|0,0,0,0,0,0,0,0,0,0,0,0,0,0,0,0,0,0
,0,0,0,78,81,143,0,92,0,0,0,0,0,0,0,0,0,0
,0,0,0,0,0,0,0,103,0,0,0,86,0,0,0,0,
|0,0,0,123,0,146,127,99,123,76,97,105,117,0,0,98,0,0
,0,66,0,0,0,0,0,0,99,0,0,113,0,84,85,0,0,0
,137,105,80,81,76,106,120,120,86,94,0,0,0,0,0,0,
|0,0,0,0,0,0,69,109,0,0,130,56,133,97,91,56,0,137
,90,0,110,0,92,109,135,0,53,56,0,0,0,91,0,58,0,0
,0,0,103,0,120,0,114,102,74,140,0,128,0,123,84,0,
|0,0,0,0,0,0,0,0,0,0,0,0,0,0,55,148,0,0
,0,0,80,0,56,0,133,132,56,0,0,0,0,0,0,0,125,0
,0,0,127,93,0,0,59,97,98,146,134,124,65,138,0,0,
|0,0,0,0,0,0,0,0,0,0,0,0,0,0,0,0,0,0
,0,0,0,89,0,144,94,68,119,0,0,0,0,0,0,146,0,0
,0,0,0,143,0,0,94,0,0,94,0,128,0,0,0,0,
|0,0,0,0,0,0,0,0,0,0,0,0,0,0,0,0,0,0
,0,109,136,0,119,100,112,0,0,0,0,0,0,0,0,0,0,0
,0,0,0,0,83,0,98,82,129,82,0,0,0,0,0,0,
|0,0,0,0,0,0,0,0,0,0,0,0,0,0,0,0,0,0
,0,149,0,0,0,55,142,132,0,139,0,0,0,0,0,0,0,0
,0,0,0,0,0,73,94,145,128,126,0,0,141,0,0,0,
|0,0,0,0,0,0,0,0,0,0,0,0,0,0,0,0,0,0
,0,0,0,0,0,0,121,0,0,0,0,0,0,0,0,0,0,0
,0,0,0,0,0,0,0,115,62,0,0,0,80,0,0,0,
|0,0,0,0,0,0,0,0,0,0,0,0,0,0,0,0,0,0,0,0,0,0,0,94
,0,65,0,91,0,0,0,0,0,0,0,0,0,0,0,0,0,0,0,63,0,0,0,83
,0,0,0,0,
|0,0,0,0,0,0,0,0,0,0,0,0,0,0,0,0,0,0
,0,0,0,0,0,0,0,0,64,126,0,0,0,0,0,0,0,0
,0,0,0,0,0,0,0,0,69,0,0,0,0,0,0,0,
|0,0,0,0,0,0,0,0,0,0,0,0,0,0,0,0,0,0,0,0,0,0,0,0
,0,0,99,83,0,0,0,0,0,0,0,0,0,0,0,0,0,0,0,0,0,0,0,0
,87,0,0,0,
|0,0,0,0,0,0,0,0,0,0,0,0,0,0,0,0,0,0
,0,0,0,0,0,0,0,0,0,148,0,0,0,0,0,0,0,0
,0,0,0,0,0,0,0,0,0,0,0,110,0,0,0,0,
|0,0,0,0,0,0,0,0,0,0,0,0,0,0,0,0,0,0
,0,0,0,0,0,0,0,0,54,127,0,0,0,0,0,0,99,0
,0,0,0,0,0,71,134,0,0,0,0,127,75,0,0,0,
|0,0,0,0,0,0,0,0,0,0,0,0,0,0,0,0,0,0,0,0,0,0,0,0
,0,0,0,77,0,0,0,0,0,0,0,0,0,0,0,0,0,0,0,0,0,0,0,0
,0,0,0,0,
|0,0,0,0,0,0,0,0,0,0,0,0,0,0,0,0,0,0
,0,0,0,0,0,0,0,0,0,0,0,0,0,0,0,0,0,0
,0,0,0,0,0,0,0,0,0,144,0,0,0,0,0,0,
|0,0,0,0,0,0,0,0,0,0,0,0,0,0,0,0,58,0
,129,120,0,0,124,62,0,0,103,88,0,0,0,0,0,0,145,0
,0,0,0,0,0,0,0,96,0,105,0,0,145,0,0,0,
|0,0,0,0,0,0,0,0,0,0,0,0,0,130,0,96,0,99
,58,0,0,115,0,142,0,0,0,133,0,0,0,0,0,101,0,0
,0,0,0,89,0,145,0,0,88,0,91,0,0,0,0,0,
|0,0,0,0,0,0,0,0,0,0,0,0,0,0,0,0,0,0,0,0,0,0,0,0,0,0,0,0,0,0,0,0,0,0,0,0,0
,0,0,0,0,0,0,0,0,0,0,0,0,0,0,0|];
max_time=5000;
